78
1 69 
2 79 116 
2 73 55 
2 9 109 
1 15 
3 119 83 92 
2 112 1 
3 12 75 87 
1 33 
2 52 76 
3 50 24 84 
3 107 106 8 
3 56 42 7 
1 14 
3 11 90 26 
3 2 6 5 
1 63 
2 88 13 
3 95 113 99 
2 97 57 
1 38 
3 100 47 71 
3 17 94 23 
1 51 
2 40 67 
3 74 41 22 
3 44 111 70 
1 105 
1 48 
2 34 91 
2 39 32 
1 65 
1 102 
1 114 
1 101 
1 19 
1 66 
1 30 
1 85 
1 93 
1 120 
3 64 60 96 
3 98 104 20 
1 80 
1 37 
1 53 
1 35 
1 18 
1 4 
1 82 
1 58 
1 16 
1 25 
1 81 
1 89 
1 68 
3 108 3 29 
3 78 110 72 
1 62 
1 77 
1 28 
1 117 
1 43 
1 54 
1 103 
1 115 
1 86 
1 36 
1 10 
1 61 
1 21 
1 118 
1 27 
1 49 
1 45 
1 46 
1 59 
1 31 
